NAME : XML100_3343_21
DIMENSION : 101
NB_CLUSTERS : 3
CLUSTERING_ALG : KMedoids
CLUSTERING_PARAMS : k(2)
CLUSTERS
1 0
2 1 2 9 10 11 15 18 19 20 21 23 24 25 26 27 31 34 36 37 38 39 51 52 53 54 57 60 65 67 69 70 73 75 77 79 80 84 86 91 92 93 94 97 98
3 3 4 5 6 7 8 12 13 14 16 17 22 28 29 30 32 33 35 40 41 42 43 44 45 46 47 48 49 50 55 56 58 59 61 62 63 64 66 68 71 72 74 76 78 81 82 83 85 87 88 89 90 95 96 99 100
EOF